RT is False
Default write of storage_offers_DA.csv just to have a file (but constraint should be inactive)
Reading model...
...model read.
creating competitive generators file...
...competitive generators recorded.
Loading data...
.. day-ahead data read.
Compiling instance...
...instance created.
Creating Offer Mitigation (model will solve as dispatch if TRUE)...
NOTE: storage offers will not be mitigated
...storage offer mitigation file created
Converting model to MPEC...
...converted
NOTE: initial MIP solve with only storage competitive to get feasible solution
Solving...

Welcome to IBM(R) ILOG(R) CPLEX(R) Interactive Optimizer 12.9.0.0
  with Simplex, Mixed Integer & Barrier Optimizers
5725-A06 5725-A29 5724-Y48 5724-Y49 5724-Y54 5724-Y55 5655-Y21
Copyright IBM Corp. 1988, 2019.  All Rights Reserved.

Type 'help' for a list of available commands.
Type 'help' followed by a command name for more
information on commands.

CPLEX> Logfile 'cplex.log' closed.
Logfile 'C:\Users\Luke\Desktop\competitiveMPEC_12.6\logs\tmpltx0uo8d.cplex.log' open.
CPLEX> New value for parallel optimization mode: -1
CPLEX> New value for mixed integer optimality gap tolerance: 0.01
CPLEX> New value for integrality tolerance: 1e-09
CPLEX> New value for feasibility tolerance: 0.01
CPLEX> New value for deterministic time limit in ticks: 175000
CPLEX> Problem 'C:\Users\Luke\Desktop\competitiveMPEC_12.6\logs\tmp55x0hjh1.pyomo.lp' read.
Read time = 0.20 sec. (13.79 ticks)
CPLEX> Problem name         : C:\Users\Luke\Desktop\competitiveMPEC_12.6\logs\tmp55x0hjh1.pyomo.lp
Objective sense      : Maximize
Variables            :   53321  [Nneg: 1,  Box: 21806,  Free: 4416,
                                 Binary: 27098]
Objective nonzeros   :    8965
Linear constraints   :  122188  [Less: 41007,  Greater: 58612,  Equal: 22569]
  Nonzeros           :  288562
  RHS nonzeros       :   66991

Variables            : Min LB: -5000.000        Max UB: 1000000.       
Objective nonzeros   : Min   : 0.1000000        Max   : 722.0000       
Linear constraints   :
  Nonzeros           : Min   : 0.1000000        Max   : 1000000.       
  RHS nonzeros       : Min   : 0.1000000        Max   : 1000000.       
CPLEX> CPXPARAM_Parallel                                -1
CPXPARAM_Simplex_Tolerances_Feasibility          0.01
CPXPARAM_DetTimeLimit                            175000
CPXPARAM_MIP_Tolerances_MIPGap                   0.01
CPXPARAM_MIP_Tolerances_Integrality              1.0000000000000001e-09
Tried aggregator 3 times.
MIP Presolve eliminated 88139 rows and 18961 columns.
MIP Presolve added 3367 rows and 0 columns.
MIP Presolve modified 24540 coefficients.
Aggregator did 12906 substitutions.
Reduced MIP has 24510 rows, 20888 columns, and 68698 nonzeros.
Reduced MIP has 8263 binaries, 0 generals, 0 SOSs, and 0 indicators.
Presolve time = 0.25 sec. (174.57 ticks)
Probing fixed 441 vars, tightened 2931 bounds.
Probing time = 1.36 sec. (916.46 ticks)
Tried aggregator 2 times.
MIP Presolve eliminated 985 rows and 883 columns.
MIP Presolve modified 2174 coefficients.
Aggregator did 39 substitutions.
Reduced MIP has 23486 rows, 19966 columns, and 65723 nonzeros.
Reduced MIP has 7822 binaries, 0 generals, 0 SOSs, and 0 indicators.
Presolve time = 0.11 sec. (68.74 ticks)
Probing time = 0.02 sec. (15.51 ticks)
Clique table members: 6424.
MIP emphasis: balance optimality and feasibility.
MIP search method: dynamic search.
Parallel mode: opportunistic, using up to 24 threads.
Root relaxation solution time = 0.25 sec. (244.17 ticks)

        Nodes                                         Cuts/
   Node  Left     Objective  IInf  Best Integer    Best Bound    ItCnt     Gap

      0     0    56445.9525  1716                  56445.9525     5133         
      0     0    56161.3897   610                   Cuts: 691     5416         
      0     0    56125.7422   498                   Cuts: 430     5545         
      0     0    56116.8092   448                   Cuts: 247     5634         
      0     0    56093.8739   411                   Cuts: 129     5704         
      0     0    56090.0340   396                    Cuts: 57     5725         
      0     0    56090.0340   392                    Cuts: 29     5735         
      0     0    56090.0340   383                    Cuts: 25     5743         
      0     0    56090.0340   375                    Cuts: 25     5751         
      0     0    56090.0340   369                    Cuts: 22     5757         
      0    19    45304.2041   348                 Flowcuts: 2     5896         
Elapsed time = 8.95 sec. (5641.72 ticks, tree = 0.02 MB, solutions = 0)
    363    46    54980.4063   346                  55968.8497     6025         
    877   666    53264.4718   312                  55688.6836     8951         
   1423   835    51217.8095   312                  55688.6836    10038         
   1968  1385    51054.6194   275                  55688.6836    14613         
   2575  1871    54724.7216   300                  55688.6836    17545         
   3173  2641    54724.7216   284                  55688.6836    19112         
   4037  3015    54633.6418   237                  55688.6836    19169         
   5101  3539    51054.6194   257                  55688.6836    19726         
   5955  5397    54633.6418   204                  55688.6836    20540         
*  7908+ 3221                        52674.1025    55688.6836             5.72%
Elapsed time = 16.39 sec. (8338.40 ticks, tree = 24.16 MB, solutions = 4)
*  9442  3280      integral     0    54958.9212    55688.6836    22874    1.33%

GUB cover cuts applied:  1
Clique cuts applied:  33
Cover cuts applied:  1
Implied bound cuts applied:  77
Flow cuts applied:  516
Mixed integer rounding cuts applied:  278
Gomory fractional cuts applied:  76

Root node processing (before b&c):
  Real time             =    8.45 sec. (5613.51 ticks)
Parallel b&c, 24 threads:
  Real time             =   14.59 sec. (7198.69 ticks)
  Sync time (average)   =    0.19 sec.
  Wait time (average)   =    0.00 sec.
                          ------------
Total (root+branch&cut) =   23.05 sec. (12812.20 ticks)

Solution pool: 11 solutions saved.

MIP - Integer optimal, tolerance (0.01/1e-06):  Objective =  5.4958921194e+04
Current MIP best bound =  5.5494343725e+04 (gap = 535.423, 0.97%)
Solution time =   23.05 sec.  Iterations = 31961  Nodes = 10278 (1499)
Deterministic time = 12812.35 ticks  (555.95 ticks/sec)

CPLEX> Incumbent solution written to file 'C:\Users\Luke\Desktop\competitiveMPEC_12.6\logs\tmpy80b6tkc.cplex.sol'.
CPLEX> NOTE: no warmstart specified for MIP iteration, default behavior is true
NOTE: resolving with all competitive generators using storage-only solution to warmstart
Solving...

Welcome to IBM(R) ILOG(R) CPLEX(R) Interactive Optimizer 12.9.0.0
  with Simplex, Mixed Integer & Barrier Optimizers
5725-A06 5725-A29 5724-Y48 5724-Y49 5724-Y54 5724-Y55 5655-Y21
Copyright IBM Corp. 1988, 2019.  All Rights Reserved.

Type 'help' for a list of available commands.
Type 'help' followed by a command name for more
information on commands.

CPLEX> Logfile 'cplex.log' closed.
Logfile 'C:\Users\Luke\Desktop\competitiveMPEC_12.6\logs\tmp33e2kh0l.cplex.log' open.
CPLEX> New value for parallel optimization mode: -1
CPLEX> New value for mixed integer optimality gap tolerance: 0.01
CPLEX> New value for integrality tolerance: 1e-09
CPLEX> New value for feasibility tolerance: 0.01
CPLEX> New value for deterministic time limit in ticks: 175000
CPLEX> Problem 'C:\Users\Luke\Desktop\competitiveMPEC_12.6\logs\tmps2mzbw3e.pyomo.lp' read.
Read time = 0.19 sec. (13.81 ticks)
CPLEX> MIP start file 'C:\Users\Luke\Desktop\competitiveMPEC_12.6\logs\tmp3hl5ugi4.cplex.mst' read.
CPLEX> Problem name         : C:\Users\Luke\Desktop\competitiveMPEC_12.6\logs\tmps2mzbw3e.pyomo.lp
Objective sense      : Maximize
Variables            :   54041  [Nneg: 1,  Box: 22526,  Free: 4416,
                                 Binary: 27098]
Objective nonzeros   :    9662
Linear constraints   :  122188  [Less: 41007,  Greater: 58612,  Equal: 22569]
  Nonzeros           :  288562
  RHS nonzeros       :   66991

Variables            : Min LB: -5000.000        Max UB: 1000000.       
Objective nonzeros   : Min   : 0.1000000        Max   : 722.0000       
Linear constraints   :
  Nonzeros           : Min   : 0.1000000        Max   : 1000000.       
  RHS nonzeros       : Min   : 0.1000000        Max   : 1000000.       
CPLEX> CPXPARAM_Parallel                                -1
CPXPARAM_Simplex_Tolerances_Feasibility          0.01
CPXPARAM_DetTimeLimit                            175000
CPXPARAM_MIP_Tolerances_MIPGap                   0.01
CPXPARAM_MIP_Tolerances_Integrality              1.0000000000000001e-09
Warning:  No solution found from 1 MIP starts.
Retaining values of one MIP start for possible repair.
Tried aggregator 3 times.
MIP Presolve eliminated 88139 rows and 19681 columns.
MIP Presolve added 3367 rows and 0 columns.
MIP Presolve modified 24540 coefficients.
Aggregator did 12906 substitutions.
Reduced MIP has 24510 rows, 20888 columns, and 68698 nonzeros.
Reduced MIP has 8263 binaries, 0 generals, 0 SOSs, and 0 indicators.
Presolve time = 0.23 sec. (174.93 ticks)
Probing fixed 441 vars, tightened 2931 bounds.
Probing time = 1.38 sec. (916.46 ticks)
Tried aggregator 2 times.
MIP Presolve eliminated 985 rows and 883 columns.
MIP Presolve modified 2174 coefficients.
Aggregator did 39 substitutions.
Reduced MIP has 23486 rows, 19966 columns, and 65723 nonzeros.
Reduced MIP has 7822 binaries, 0 generals, 0 SOSs, and 0 indicators.
Presolve time = 0.11 sec. (68.74 ticks)
Probing time = 0.01 sec. (15.51 ticks)
Clique table members: 6424.
MIP emphasis: balance optimality and feasibility.
MIP search method: dynamic search.
Parallel mode: opportunistic, using up to 24 threads.
Root relaxation solution time = 0.25 sec. (244.20 ticks)

        Nodes                                         Cuts/
   Node  Left     Objective  IInf  Best Integer    Best Bound    ItCnt     Gap

      0     0    56445.9525  1719                  56445.9525     5132         
      0     0    56161.3897   614                   Cuts: 690     5415         
      0     0    56125.7422   502                   Cuts: 430     5544         
      0     0    56116.8092   452                   Cuts: 247     5633         
      0     0    56093.8739   415                   Cuts: 129     5703         
      0     0    56090.0340   400                    Cuts: 57     5724         
      0     0    56090.0340   396                    Cuts: 29     5734         
      0     0    56090.0340   387                    Cuts: 25     5742         
      0     0    56090.0340   379                    Cuts: 25     5750         
      0     0    56090.0340   373                    Cuts: 22     5756         
Repair heuristic found nothing.
      0    17    infeasible                       Flowcuts: 2     5850         
Elapsed time = 9.16 sec. (5738.09 ticks, tree = 0.02 MB, solutions = 0)
    272   156    51523.6953   340                  55969.7615     6505         
    580   495    52438.2130   349                  55969.7615     8042         
   1201   845    51043.1450   304                  55969.7615    10784         
   2005  1386  -205890.6740   335                  55969.7615    13423         
   2936  2189    51953.3369   311                  55969.7615    14507         
   3739  2310  -205925.9813   329                  55969.7615    14608         
   4497  3005    54652.8603   324                  55969.7615    14715         
   5222  4343    48816.3185   250                  55969.7615    16670         
   6105  4908    55382.3414   356                  55969.7615    20830         
*  8034+ 6293                        50409.7821    55969.7615            11.03%
Elapsed time = 16.69 sec. (8361.68 ticks, tree = 52.46 MB, solutions = 1)
*  9431  3788      integral     0    53897.3836    55967.7090    24150    3.84%
*  9474  3753      integral     0    54490.4341    55967.7090    24035    2.71%
  10229  3173        cutoff          54490.4341    55551.8768    34078    1.95%
  10257     1    55654.9548    75    54490.4341    55213.9144    33926    1.33%

GUB cover cuts applied:  1
Clique cuts applied:  39
Cover cuts applied:  8
Implied bound cuts applied:  69
Flow cuts applied:  567
Mixed integer rounding cuts applied:  175
Gomory fractional cuts applied:  72

Root node processing (before b&c):
  Real time             =    8.77 sec. (5720.28 ticks)
Parallel b&c, 24 threads:
  Real time             =   21.70 sec. (11403.34 ticks)
  Sync time (average)   =    2.78 sec.
  Wait time (average)   =    0.07 sec.
                          ------------
Total (root+branch&cut) =   30.47 sec. (17123.62 ticks)

Solution pool: 8 solutions saved.

MIP - Integer optimal, tolerance (0.01/1e-06):  Objective =  5.4490434100e+04
Current MIP best bound =  5.5011525666e+04 (gap = 521.092, 0.96%)
Solution time =   30.47 sec.  Iterations = 34432  Nodes = 10275 (12)
Deterministic time = 17123.77 ticks  (562.01 ticks/sec)

CPLEX> Incumbent solution written to file 'C:\Users\Luke\Desktop\competitiveMPEC_12.6\logs\tmpqw54b0dz.cplex.sol'.
CPLEX> Exporting results... 
